20 41 99
1 2 4
1 10 5
1 19 1
2 11 5
2 13 4
2 17 4
2 20 1
3 11 1
4 8 4
4 10 2
4 18 3
4 19 2
5 7 2
5 12 3
5 17 3
6 9 2
6 12 1
6 14 2
6 17 3
6 20 4
7 19 1
7 20 2
8 9 3
8 15 1
8 18 2
8 19 1
8 20 3
9 13 5
9 16 3
9 18 4
9 20 1
10 13 4
10 16 5
11 14 2
11 19 3
12 16 2
12 17 4
13 17 5
14 16 5
14 19 4
17 19 4
